
Gurobi 13.0.2 (win64) logging started Thu Jul 23 06:07:55 2026

Set parameter LogFile to value "E:\codes\ExactEBRP\results\gf_cplex_equivalent_gurobi_replica_round28\runs\stage2__tight_T_seed4101__c3_replica__300s\external\native_logs\R.0.0_lp.gurobi.log"
Gurobi Optimizer version 13.0.2 build v13.0.2rc1 (win64 - Windows 10.0 (19045.2))

CPU model: 12th Gen Intel(R) Core(TM) i7-12700KF, instruction set [SSE2|AVX|AVX2]
Thread count: 12 physical cores, 20 logical processors, using up to 1 threads

Non-default parameters:
TimeLimit  2.6427583569999996e+02
MIPGap  0
MIPGapAbs  0
LogToConsole  0
Threads  1

Optimize a model with 11895 rows, 3372 columns and 67105 nonzeros (Min)
Model fingerprint: 0x936325ec
Model has 21 linear objective coefficients
Coefficient statistics:
  Matrix range     [7e-03, 2e+04]
  Objective range  [7e-03, 1e+00]
  Bounds range     [1e-01, 1e+03]
  RHS range        [1e-01, 5e+04]

Presolve removed 1394 rows and 104 columns
Presolve time: 0.04s
Presolved: 10501 rows, 3269 columns, 61470 nonzeros

Iteration    Objective       Primal Inf.    Dual Inf.      Time
       0    1.3984008e-01   5.742035e+02   0.000000e+00      0s
    3105    3.5506131e-01   0.000000e+00   0.000000e+00      0s

Solved in 3105 iterations and 0.24 seconds (0.68 work units)
Optimal objective  3.550613072e-01

User-callback calls 3248, time in user-callback 0.00 sec
